language Essence 1.3

letting blksize_delta be function(1 --> 7, 2 --> 7, 3 --> 7, 4 --> 7, 5 --> 7)
letting maxcars be function(1 --> 10, 2 --> 10, 3 --> 10, 4 --> 10, 5 --> 10)
letting n_cars be 266
letting n_classes be 85
letting n_options be 5
letting quantity be
        function(1 --> 7, 2 --> 9, 3 --> 3, 4 --> 3, 5 --> 4, 6 --> 3, 7 --> 3, 8 --> 3, 9 --> 3, 10 --> 3, 11 --> 3,
                 12 --> 3, 13 --> 3, 14 --> 3, 15 --> 3, 16 --> 3, 17 --> 3, 18 --> 3, 19 --> 3, 20 --> 3, 21 --> 3,
                 22 --> 3, 23 --> 3, 24 --> 3, 25 --> 3, 26 --> 3, 27 --> 3, 28 --> 3, 29 --> 3, 30 --> 3, 31 --> 3,
                 32 --> 3, 33 --> 3, 34 --> 3, 35 --> 3, 36 --> 3, 37 --> 3, 38 --> 3, 39 --> 3, 40 --> 3, 41 --> 3,
                 42 --> 3, 43 --> 3, 44 --> 3, 45 --> 3, 46 --> 3, 47 --> 3, 48 --> 3, 49 --> 3, 50 --> 3, 51 --> 3,
                 52 --> 3, 53 --> 3, 54 --> 3, 55 --> 3, 56 --> 3, 57 --> 3, 58 --> 3, 59 --> 3, 60 --> 3, 61 --> 3,
                 62 --> 3, 63 --> 3, 64 --> 3, 65 --> 3, 66 --> 3, 67 --> 3, 68 --> 3, 69 --> 3, 70 --> 3, 71 --> 3,
                 72 --> 3, 73 --> 3, 74 --> 3, 75 --> 3, 76 --> 3, 77 --> 3, 78 --> 3, 79 --> 3, 80 --> 3, 81 --> 3,
                 82 --> 3, 83 --> 3, 84 --> 3, 85 --> 3)
letting usage be
        relation((1, 1), (2, 1), (2, 2), (3, 4), (3, 5), (4, 1), (5, 1), (5, 2), (6, 1), (6, 2), (7, 1), (7, 3), (7, 4),
                 (7, 5), (8, 4), (8, 5), (9, 1), (9, 2), (9, 3), (9, 4), (9, 5), (10, 1), (10, 3), (10, 4), (11, 1),
                 (11, 3), (11, 4), (12, 4), (13, 3), (14, 3), (14, 5), (15, 1), (15, 2), (15, 3), (16, 1), (16, 3),
                 (17, 2), (17, 5), (18, 1), (18, 4), (18, 5), (19, 1), (19, 4), (20, 2), (21, 1), (21, 2), (21, 3),
                 (22, 2), (22, 4), (23, 3), (23, 4), (24, 1), (24, 4), (25, 4), (26, 1), (26, 2), (27, 3), (28, 4),
                 (29, 4), (30, 1), (30, 3), (31, 3), (32, 1), (32, 3), (33, 1), (33, 4), (34, 3), (34, 4), (35, 2),
                 (36, 5), (37, 2), (38, 1), (38, 3), (38, 4), (39, 4), (40, 1), (40, 3), (41, 1), (41, 4), (42, 1),
                 (42, 3), (43, 1), (43, 3), (43, 4), (44, 2), (44, 3), (45, 1), (45, 3), (46, 2), (46, 3), (46, 4),
                 (47, 1), (47, 2), (47, 4), (48, 1), (48, 3), (49, 1), (49, 3), (49, 4), (50, 1), (50, 4), (51, 3),
                 (52, 3), (53, 1), (53, 3), (54, 2), (54, 3), (55, 1), (55, 2), (55, 4), (56, 5), (57, 5), (58, 5),
                 (59, 1), (59, 3), (59, 4), (60, 2), (60, 3), (61, 3), (61, 4), (62, 5), (63, 1), (63, 3), (64, 3),
                 (64, 4), (65, 4), (66, 2), (66, 4), (67, 1), (67, 2), (67, 3), (67, 4), (68, 2), (68, 3), (68, 4),
                 (69, 1), (69, 3), (70, 1), (70, 2), (71, 1), (71, 2), (71, 3), (72, 5), (73, 5), (74, 2), (74, 3),
                 (75, 1), (76, 1), (76, 2), (76, 4), (77, 5), (78, 3), (79, 1), (79, 2), (79, 3), (79, 4), (80, 3),
                 (81, 3), (81, 4), (82, 3), (82, 4), (83, 1), (83, 2), (84, 1), (84, 3), (84, 4), (85, 4))
$ Visualisation for usage
$  1  1
$  2  1
$  2  2
$  3  4
$  3  5
$  4  1
$  5  1
$  5  2
$  6  1
$  6  2
$  7  1
$  7  3
$  7  4
$  7  5
$  8  4
$  8  5
$  9  1
$  9  2
$  9  3
$  9  4
$  9  5
$ 10  1
$ 10  3
$ 10  4
$ 11  1
$ 11  3
$ 11  4
$ 12  4
$ 13  3
$ 14  3
$ 14  5
$ 15  1
$ 15  2
$ 15  3
$ 16  1
$ 16  3
$ 17  2
$ 17  5
$ 18  1
$ 18  4
$ 18  5
$ 19  1
$ 19  4
$ 20  2
$ 21  1
$ 21  2
$ 21  3
$ 22  2
$ 22  4
$ 23  3
$ 23  4
$ 24  1
$ 24  4
$ 25  4
$ 26  1
$ 26  2
$ 27  3
$ 28  4
$ 29  4
$ 30  1
$ 30  3
$ 31  3
$ 32  1
$ 32  3
$ 33  1
$ 33  4
$ 34  3
$ 34  4
$ 35  2
$ 36  5
$ 37  2
$ 38  1
$ 38  3
$ 38  4
$ 39  4
$ 40  1
$ 40  3
$ 41  1
$ 41  4
$ 42  1
$ 42  3
$ 43  1
$ 43  3
$ 43  4
$ 44  2
$ 44  3
$ 45  1
$ 45  3
$ 46  2
$ 46  3
$ 46  4
$ 47  1
$ 47  2
$ 47  4
$ 48  1
$ 48  3
$ 49  1
$ 49  3
$ 49  4
$ 50  1
$ 50  4
$ 51  3
$ 52  3
$ 53  1
$ 53  3
$ 54  2
$ 54  3
$ 55  1
$ 55  2
$ 55  4
$ 56  5
$ 57  5
$ 58  5
$ 59  1
$ 59  3
$ 59  4
$ 60  2
$ 60  3
$ 61  3
$ 61  4
$ 62  5
$ 63  1
$ 63  3
$ 64  3
$ 64  4
$ 65  4
$ 66  2
$ 66  4
$ 67  1
$ 67  2
$ 67  3
$ 67  4
$ 68  2
$ 68  3
$ 68  4
$ 69  1
$ 69  3
$ 70  1
$ 70  2
$ 71  1
$ 71  2
$ 71  3
$ 72  5
$ 73  5
$ 74  2
$ 74  3
$ 75  1
$ 76  1
$ 76  2
$ 76  4
$ 77  5
$ 78  3
$ 79  1
$ 79  2
$ 79  3
$ 79  4
$ 80  3
$ 81  3
$ 81  4
$ 82  3
$ 82  4
$ 83  1
$ 83  2
$ 84  1
$ 84  3
$ 84  4
$ 85  4

